\ LP format - for model browsing. Use MPS format to capture full model detail.
Minimize
  - zeta
Subject To
 R0: x_0 + x_1 + x_2 + x_3 + x_4 + x_5 + x_6 + x_7 + x_8 + x_9 + x_10
   + x_11 + x_12 + x_13 + x_14 + x_15 + x_16 + x_17 + x_18 + x_19 + x_20
   + x_21 + x_22 + x_23 + x_24 + x_25 + x_26 + x_27 + x_28 + x_29 + x_30
   + x_31 + x_32 + x_33 + x_34 + x_35 + x_36 + x_37 + x_38 + x_39 + x_40
   + x_41 + x_42 + x_43 + x_44 + x_45 + x_46 + x_47 + x_48 + x_49 + x_50
   + x_51 + x_52 + x_53 + x_54 + x_55 + x_56 + x_57 + x_58 + x_59 + x_60
   + x_61 + x_62 + x_63 + x_64 + x_65 + x_66 + x_67 + x_68 + x_69 + x_70
   <= 8
 R1: - 13562.75081634521 x_6 - 13562.75081634521 x_20
   - 86437.24918365479 x_33 - 13562.75081634521 x_36
   - 86437.24918365479 x_64 - 100000 x_70 + zeta <= 3.082983732223511
 R2: - 100000 x_33 - 100000 x_64 - 100000 x_70 + zeta <= -1.693990857e+09
 R3: - 100000 x_33 - 100000 x_64 - 100000 x_70 + zeta <= -1.176826911e+09
 R4: - 100000 x_33 - 100000 x_64 - 100000 x_70 + zeta <= -4.374369664e+09
Bounds
Binaries
 x_0 x_1 x_2 x_3 x_4 x_5 x_6 x_7 x_8 x_9 x_10 x_11 x_12 x_13 x_14 x_15 x_16
 x_17 x_18 x_19 x_20 x_21 x_22 x_23 x_24 x_25 x_26 x_27 x_28 x_29 x_30 x_31
 x_32 x_33 x_34 x_35 x_36 x_37 x_38 x_39 x_40 x_41 x_42 x_43 x_44 x_45 x_46
 x_47 x_48 x_49 x_50 x_51 x_52 x_53 x_54 x_55 x_56 x_57 x_58 x_59 x_60 x_61
 x_62 x_63 x_64 x_65 x_66 x_67 x_68 x_69 x_70
End
